(declare-datatype None ((none)))
;;Bool is Bool
(define-sort Nat () Int)
;;Int is Int
(define-sort BigNat () Int)
(define-sort BigInt () Int)
(define-sort Float () Real)
(define-sort CString () String)
